% MIT License
%
% Copyright (c) 2021 Johan Ludde Wessén
%
% Permission is hereby granted, free of charge, to any person obtaining 
% a copy of this software and associated documentation files (the "Software"),
% to deal in the Software without restriction, including without limitation 
% the rights to use, copy, modify, merge, publish, distribute, sublicense, 
% and/or sell copies of the Software, and to permit persons to whom the 
% Software is furnished to do so, subject to the following conditions:
% 
% The above copyright notice and this permission notice shall be included 
% in all copies or substantial portions of the Software.
%
% THE SOFTWARE IS PROVIDED "AS IS", WITHOUT WARRANTY OF ANY KIND, 
% EXPRESS OR IMPLIED, INCLUDING BUT NOT LIMITED TO THE WARRANTIES OF
% MERCHANTABILITY, FITNESS FOR A PARTICULAR PURPOSE AND
% NONINFRINGEMENT. IN NO EVENT SHALL THE AUTHORS OR COPYRIGHT HOLDERS BE
% LIABLE FOR ANY CLAIM, DAMAGES OR OTHER LIABILITY, WHETHER IN AN ACTION
% OF CONTRACT, TORT OR OTHERWISE, ARISING FROM, OUT OF OR IN CONNECTION
% WITH THE SOFTWARE OR THE USE OR OTHER DEALINGS IN THE SOFTWARE.

%-----------------------------------------------------------------------------%
% Dual Arm Multi Capacity Multi Tool Scheduling / Routing
% Assembly Configuration
% Auto Generated by python script, authored by Johan Ludde Wessen 
%-----------------------------------------------------------------------------%


task_durations = [|26, 30, 21, 23, 25, 30, 25, 25, 56, 46, 49, 47, 57, 50, 54, 46, 32, 24, 34,  7,  7,  6,  7,  8,  7,  5
                  |31, 23, 24, 26, 26, 31, 22, 31, 61, 50, 41, 54, 47, 56, 45, 48, 36, 24, 34,  7,  6,  5,  6,  7,  7,  6
                  |];


TRAY_TASKS = 1..6;
CAMERA_TASKS = 17..19;
OUTPUT_TASKS = { 16 };


empty_gripper_tasks = 20..26;


gripper_pick_tasks_orders = [|1, 9, -1
|2, 10, -1
|3, 11, -1
|7, 15, -1
|8, 16, -1
|];

suction_pick_tasks_orders = [|4, 17, 12, -1
|5, 18, 13, -1
|6, 19, 14, -1
|];

fixture_task_orders = [|9, 20, 12, 23, 10, 21, 7, -1, -1, -1
|13, 24, 14, 25, 11, 22, 15, 26, 8, -1
|];

